<instance format="XCSP3" type="FCSP">
  <variables>
    <var id="x"> 0..7 </var> 
    <var id="y"> 0..7 </var> 
    <var id="z"> 0..7 </var>
  </variables>
  <constraints>
    <extension id="c0" type="fuzzy" defaultDegree="0.25">
      <list> x </list>
      <tuples degree="1"> 4 </tuples>
      <tuples degree="0.75"> 3 5 </tuples>
    </extension>
    <extension id="c1" type="fuzzy" defaultDegree="0.5">
      <list> y </list>
      <tuples degree="1"> 3 4 </tuples>
    </extension>
    <extension id="c2" type="fuzzy" defaultDegree="0">
      <list> z </list>
      <tuples degree="1"> 2 </tuples>
      <tuples degree="0.75"> 1 3 </tuples>
    </extension>
    <intension id="c3" type="fuzzy">
      if(eq(add(x,y,z),7),1,0) 
    </intension>
  </constraints>
</instance>
